(set-option :produce-models true)
(set-logic all)
(define-fun s1 () int 0)
(define-fun s3 () int 1)
(declare-fun s0 () (seq (seq bool)))
(define-fun s2 () (seq bool) (seq.nth s0 s1))
(define-fun s4 () bool (seq.nth s2 s3))
(assert s4)
(check-sat)